Route #1: 1 41 50 29 33 1
Route #2: 1 26 17 43 11 4 28 44 25 19 15 31 1
Route #3: 1 35 7 16 20 45 18 49 3 30 24 1
Route #4: 1 6 21 12 38 9 22 46 37 36 48 1
Route #5: 1 40 27 14 47 23 1
Route #6: 1 42 32 34 10 39 13 5 2 1
Route #7: 1 8 1
cost 868.6793402432663